32	0

0	1	2
8	1	3
10	1	4
4	1	5
2	1	6
6	1	7
5	1	8
10	1	9
2	1	10
6	1	11
3	1	12
7	1	13
8	1	14
10	1	15
5	1	16
4	1	17
7	1	18
1	1	19
5	1	20
3	1	21
3	1	22
3	1	23
6	1	24
10	1	25
9	1	26
6	1	27
3	1	28
3	1	29
2	1	30
2	1	31
1	1	32
0	0
